Optimal - objective value -1036.00000000
      8 x_8                        1                      48
     14 x_14                       1                     173
     32 x_32                       1                       0
     45 x_45                       1                       0
     50 x_50                       1                       0
     67 x_67                       1                      24
     77 x_77                       1                   265.5
     80 x_80                       1         98.1666666666667
     86 x_86                       1         132.166666666667
     88 x_88                       1                       0
     93 x_93                       1         115.166666666667
    100 x_100                      1         28.8333333333333
    115 x_115                      1                       3
